\ LP format - for model browsing. Use MPS format to capture full model detail.
Minimize
  37.4 y_1 + 41.2 y_2 + 32.2 y_3 + 36.2 y_4 + 30.2 y_5 + 38 y_6 + 32 y_7
   + 36.2 y_8 + 40.2 y_9 + 33.6 y_10 + 39.2 y_11 + 76.2 y_12 + 61.6 y_13
   + 78.8 y_14 + 72.2 y_15 + 80.6 y_16 + 66.6 y_17 + 70.8 y_18 + 78.2 y_19
   + 20 y_20 + 20.4 y_21 + 24.4 y_22 + 26 y_23 + 30 y_24 + 30.2 y_25
   + 31.6 y_26 + 34.2 y_27 + 35.4 y_28 + 40 y_29 + 157.7 cg_1 + 157.7 cg_2
   + 149.7 cg_3 + 103.6 cg_4 + 181.8 cg_5 + 152.6 cg_6 + 169 cg_7
   + 105.8 cg_8 + 181.5 cg_9 + 158.9 cg_10 + 134.1 cg_11 + 167.6 cg_12
   + 139.5 cg_13 + 215.3 cg_14 + 127.4 cg_15 + 127.7 cg_16 + 158.7 cg_17
   + 133 cg_18 + 116.8 cg_19 + 116.7 cg_20 + 126.8 cg_21 + 162.2 cg_22
   + 125.9 cg_23 + 118.3 cg_24 + 142.3 cg_25 + 142.1 cg_26 + 124.5 cg_27
   + 115.6 cg_28 + 143 cg_29 + 143.5 cg_30 + 72.5 cg_31 + 154 cg_32
   + 117.7 cg_33 + 143.5 cg_34 + 115.6 cg_35 + 139.5 cg_36 + 173.7 cg_37
   + 88.8 cg_38 + 50.6 cg_39 + 110.3 cg_40 + 114.2 cg_41 + 140.5 cg_42
   + 130.9 cg_43 + 110.3 cg_44 + 119.6 cg_45 + 114.7 cg_46 + 107 cg_47
   + 163.2 cg_48 + 156.5 cg_49 + 77.3 cg_50 + 119.8 cg_51 + 69.4 cg_52
   + 119.8 cg_53 + 151.5 cg_54 + 140 cg_55 + 119.9 cg_56 + 121.2 cg_57
   + 77.4 cg_58 + 120.3 cg_59 + 75.5 cg_60 + 118.5 cg_61 + 69.4 cg_62
   + 165.2 cg_63 + 94.4 cg_64 + 115.2 cg_65 + 104.3 cg_66 + 48.9 cg_67
   + 104 cg_68 + 120.2 cg_69 + 98.2 cg_70 + 122.3 cg_71 + 112.6 cg_72
   + 103.8 cg_73 + 110.7 cg_74 + 150.3 cg_75 + 98.4 cg_76 + 117.3 cg_77
   + 78.4 cg_78 + 66.2 cg_79 + 109.6 cg_80 + 107.1 cg_81 + 72.2 cg_82
   + 100.2 cg_83 + 70.4 cg_84 + 76.4 cg_85 + 125.5 cg_86 + 101.9 cg_87
   + 100.9 cg_88 + 98.1 cg_89 + 48.6 cg_90 + 47.4 cg_91 + 70.6 cg_92
   + 69.6 cg_93 + 55.1 cg_94 + 101.1 cg_95 + 109.8 cg_96 + 42.2 cg_97
   + 104.3 cg_98 + 101.7 cg_99 + 59.3 cg_100 + 108.2 cg_101 + 107.4 cg_102
   + 107.7 cg_103 + 67.7 cg_104 + 97.9 cg_105 + 46.8 cg_106 + 100.9 cg_107
   + 42.6 cg_108 + 63.5 cg_109 + 103.1 cg_110 + 110.3 cg_111 + 109 cg_112
   + 110.7 cg_113 + 47.4 cg_114 + 107.1 cg_115 + 57.8 cg_116 + 55.9 cg_117
   + 58.9 cg_118 + 104.2 cg_119 + 44.6 cg_120 + 104.2 cg_121 + 52.5 cg_122
   + 101.5 cg_123 + 48.4 cg_124 + 101.8 cg_125 + 59.3 cg_126 + 99.9 cg_127
   + 99.2 cg_128 + 142.9 cg_129 + 91.9 cg_130 + 110.3 cg_131 + 103.4 cg_132
   + 98.5 cg_133 + 112.6 cg_134 + 102.8 cg_135 + 106.2 cg_136 + 99.8 cg_137
   + 46.4 cg_138 + 101.3 cg_139 + 48.4 cg_140 + 99.9 cg_141 + 121.2 cg_142
   + 105.3 cg_143 + 93.1 cg_144 + 103.8 cg_145 + 68.1 cg_146 + 66.9 cg_147
   + 47.4 cg_148 + 49.6 cg_149 + 50.5 cg_150 + 104.2 cg_151 + 105.5 cg_152
   + 58.1 cg_153 + 102.8 cg_154 + 101.2 cg_155 + 51.9 cg_156 + 100 cg_157
   + 110.4 cg_158 + 72.4 cg_159 + 50.8 cg_160 + 102.4 cg_161 + 103.9 cg_162
   + 102.5 cg_163 + 98.7 cg_164 + 69.8 cg_165 + 94.9 cg_166 + 125.4 cg_167
   + 109.5 cg_168 + 72.8 cg_169 + 46.8 cg_170 + 72.4 cg_171 + 52.4 cg_172
   + 72.1 cg_173 + 72 cg_174 + 102.6 cg_175 + 49 cg_176 + 115.7 cg_177
   + 94.2 cg_178 + 56.5 cg_179 + 101 cg_180 + 64.5 cg_181 + 95.9 cg_182
   + 95.9 cg_183 + 108.1 cg_184 + 47.8 cg_185 + 115 cg_186 + 102.3 cg_187
   + 105.6 cg_188 + 99.8 cg_189 + 56 cg_190 + 101.9 cg_191 + 91.9 cg_192
   + 103.7 cg_193 + 104.9 cg_194 + 97.2 cg_195 + 70.2 cg_196 + 50.8 cg_197
   + 88.2 cg_198 + 101 cg_199 + 47.5 cg_200 + 87.8 cg_201 + 43.9 cg_202
   + 92.6 cg_203 + 99.4 cg_204 + 49 cg_205 + 109.6 cg_206 + 49.5 cg_207
   + 95.8 cg_208 + 101.8 cg_209 + 58.6 cg_210 + 98.7 cg_211 + 105 cg_212
   + 101 cg_213 + 93.5 cg_214 + 48.2 cg_215 + 101.8 cg_216 + 59.3 cg_217
   + 100.3 cg_218 + 103.1 cg_219 + 100.3 cg_220 + 100.7 cg_221
   + 110.9 cg_222
Subject To
 R0: y_0 = 1
 R1: y_1 + cg_13 + cg_17 + cg_22 + cg_24 + cg_26 + cg_29 + cg_30 + cg_31
   + cg_32 + cg_33 + cg_34 + cg_40 + cg_49 + cg_50 + cg_53 + cg_54 + cg_56
   + cg_58 + cg_60 + cg_68 + cg_70 + cg_71 + cg_72 + cg_73 + cg_82 + cg_85
   + cg_94 + cg_96 + cg_99 + cg_100 + cg_101 + cg_103 + cg_112 + cg_113
   + cg_116 + cg_117 + cg_118 + cg_123 + cg_126 + cg_132 + cg_145 + cg_152
   + cg_153 + cg_161 + cg_162 + cg_163 + cg_168 + cg_179 + cg_180 + cg_187
   + cg_190 + cg_191 + cg_194 + cg_197 + cg_200 + cg_206 + cg_207 + cg_210
   + cg_212 + cg_217 + cg_218 + cg_220 + cg_222 = 1
 R2: y_2 + cg_1 + cg_2 + cg_3 + cg_4 + cg_5 + cg_6 + cg_9 + cg_10 + cg_11
   + cg_12 + cg_15 + cg_16 + cg_21 + cg_22 + cg_28 + cg_29 + cg_32 + cg_35
   + cg_36 + cg_37 + cg_40 + cg_42 + cg_49 + cg_51 + cg_52 + cg_53 + cg_54
   + cg_55 + cg_59 + cg_64 + cg_66 + cg_71 + cg_73 + cg_77 + cg_79 + cg_84
   + cg_88 + cg_89 + cg_92 + cg_93 + cg_95 + cg_98 + cg_99 + cg_100
   + cg_103 + cg_109 + cg_110 + cg_112 + cg_113 + cg_115 + cg_116 + cg_118
   + cg_121 + cg_123 + cg_125 + cg_126 + cg_147 + cg_150 + cg_151 + cg_152
   + cg_153 + cg_155 + cg_156 + cg_159 + cg_169 + cg_171 + cg_172 + cg_173
   + cg_181 + cg_187 + cg_188 + cg_190 + cg_196 + cg_197 + cg_199 + cg_200
   + cg_204 + cg_207 + cg_209 + cg_210 + cg_211 + cg_212 + cg_213 + cg_216
   + cg_217 + cg_218 + cg_219 + cg_220 + cg_221 + cg_222 = 1
 R3: y_3 + cg_1 + cg_2 + cg_4 + cg_5 + cg_7 + cg_8 + cg_12 + cg_13 + cg_14
   + cg_17 + cg_22 + cg_24 + cg_26 + cg_30 + cg_38 + cg_42 + cg_43 + cg_44
   + cg_49 + cg_50 + cg_53 + cg_60 + cg_63 + cg_66 + cg_69 + cg_70 + cg_71
   + cg_72 + cg_73 + cg_82 + cg_87 + cg_94 + cg_96 + cg_99 + cg_100
   + cg_112 + cg_113 + cg_115 + cg_116 + cg_117 + cg_118 + cg_119 + cg_121
   + cg_122 + cg_126 + cg_141 + cg_153 + cg_157 + cg_200 + cg_207 + cg_212
   + cg_217 = 1
 R4: y_4 + cg_1 + cg_2 + cg_3 + cg_4 + cg_5 + cg_6 + cg_7 + cg_9 + cg_10
   + cg_11 + cg_13 + cg_14 + cg_16 + cg_18 + cg_20 + cg_21 + cg_24 + cg_28
   + cg_35 + cg_37 + cg_41 + cg_42 + cg_49 + cg_51 + cg_52 + cg_55 + cg_59
   + cg_62 + cg_65 + cg_66 + cg_70 + cg_71 + cg_73 + cg_75 + cg_77 + cg_78
   + cg_79 + cg_83 + cg_88 + cg_89 + cg_94 + cg_98 + cg_103 + cg_104
   + cg_109 + cg_110 + cg_111 + cg_112 + cg_113 + cg_115 + cg_116 + cg_117
   + cg_118 + cg_121 + cg_122 + cg_123 + cg_125 + cg_126 + cg_144 + cg_146
   + cg_147 + cg_150 + cg_151 + cg_152 + cg_153 + cg_154 + cg_155 + cg_156
   + cg_158 + cg_159 + cg_165 + cg_167 + cg_168 + cg_169 + cg_171 + cg_172
   + cg_173 + cg_174 + cg_175 + cg_181 + cg_187 + cg_188 + cg_190 + cg_196
   + cg_197 + cg_199 + cg_200 + cg_204 + cg_207 + cg_210 + cg_211 + cg_212
   + cg_213 + cg_216 + cg_217 + cg_220 + cg_221 + cg_222 = 1
 R5: y_5 + cg_12 + cg_13 + cg_14 + cg_17 + cg_19 + cg_20 + cg_22 + cg_24
   + cg_29 + cg_30 + cg_31 + cg_32 + cg_35 + cg_37 + cg_38 + cg_42 + cg_43
   + cg_44 + cg_46 + cg_49 + cg_50 + cg_58 + cg_66 + cg_68 + cg_70 + cg_74
   + cg_76 + cg_78 + cg_82 + cg_84 + cg_85 + cg_87 + cg_94 + cg_98 + cg_99
   + cg_100 + cg_105 + cg_116 + cg_117 + cg_118 + cg_121 + cg_126 + cg_144
   + cg_145 + cg_150 + cg_151 + cg_152 + cg_153 + cg_156 + cg_157 + cg_161
   + cg_162 + cg_163 + cg_164 + cg_179 + cg_180 + cg_187 + cg_188 + cg_190
   + cg_194 + cg_195 + cg_197 + cg_200 + cg_207 + cg_208 + cg_210 + cg_212
   + cg_217 + cg_218 + cg_220 + cg_222 = 1
 R6: y_6 + cg_10 + cg_12 + cg_14 + cg_16 + cg_21 + cg_22 + cg_24 + cg_25
   + cg_26 + cg_27 + cg_28 + cg_29 + cg_32 + cg_34 + cg_36 + cg_38 + cg_40
   + cg_42 + cg_52 + cg_54 + cg_55 + cg_59 + cg_62 + cg_64 + cg_70 + cg_73
   + cg_74 + cg_75 + cg_77 + cg_78 + cg_79 + cg_83 + cg_84 + cg_85 + cg_87
   + cg_88 + cg_89 + cg_92 + cg_94 + cg_100 + cg_104 + cg_109 + cg_117
   + cg_118 + cg_122 + cg_123 + cg_125 + cg_126 + cg_129 + cg_136 + cg_144
   + cg_146 + cg_147 + cg_150 + cg_151 + cg_153 + cg_154 + cg_156 + cg_159
   + cg_165 + cg_167 + cg_168 + cg_169 + cg_171 + cg_172 + cg_173 + cg_174
   + cg_177 + cg_179 + cg_181 + cg_186 + cg_187 + cg_188 + cg_190 + cg_194
   + cg_196 + cg_197 + cg_200 + cg_207 + cg_210 + cg_212 + cg_217 + cg_218
   + cg_220 + cg_222 = 1
 R7: y_7 + cg_10 + cg_12 + cg_15 + cg_16 + cg_21 + cg_23 + cg_24 + cg_25
   + cg_27 + cg_29 + cg_30 + cg_33 + cg_34 + cg_35 + cg_38 + cg_41 + cg_42
   + cg_43 + cg_45 + cg_48 + cg_50 + cg_52 + cg_53 + cg_58 + cg_59 + cg_61
   + cg_62 + cg_63 + cg_64 + cg_73 + cg_78 + cg_83 + cg_84 + cg_85 + cg_86
   + cg_87 + cg_88 + cg_89 + cg_92 + cg_93 + cg_94 + cg_95 + cg_100
   + cg_104 + cg_109 + cg_116 + cg_118 + cg_122 + cg_123 + cg_126 + cg_134
   + cg_147 + cg_151 + cg_153 + cg_156 + cg_165 + cg_167 + cg_169 + cg_171
   + cg_172 + cg_173 + cg_174 + cg_177 + cg_179 + cg_181 + cg_186 + cg_187
   + cg_190 + cg_194 + cg_196 + cg_197 + cg_207 + cg_210 + cg_212 + cg_217
   + cg_222 = 1
 R8: y_8 + cg_1 + cg_2 + cg_3 + cg_4 + cg_5 + cg_6 + cg_7 + cg_8 + cg_12
   + cg_13 + cg_16 + cg_19 + cg_24 + cg_25 + cg_32 + cg_34 + cg_37 + cg_38
   + cg_41 + cg_48 + cg_51 + cg_53 + cg_54 + cg_55 + cg_56 + cg_57 + cg_58
   + cg_61 + cg_64 + cg_68 + cg_71 + cg_72 + cg_73 + cg_74 + cg_75 + cg_76
   + cg_77 + cg_78 + cg_82 + cg_84 + cg_85 + cg_88 + cg_93 + cg_94 + cg_100
   + cg_102 + cg_104 + cg_105 + cg_109 + cg_116 + cg_117 + cg_121 + cg_122
   + cg_123 + cg_126 + cg_146 + cg_147 + cg_150 + cg_151 + cg_152 + cg_153
   + cg_156 + cg_161 + cg_179 + cg_194 + cg_197 + cg_210 + cg_212 + cg_217
   + cg_222 = 1
 R9: y_9 + cg_1 + cg_2 + cg_3 + cg_5 + cg_6 + cg_7 + cg_9 + cg_10 + cg_11
   + cg_12 + cg_14 + cg_15 + cg_19 + cg_21 + cg_23 + cg_24 + cg_26 + cg_29
   + cg_37 + cg_38 + cg_41 + cg_43 + cg_45 + cg_46 + cg_48 + cg_49 + cg_50
   + cg_51 + cg_52 + cg_56 + cg_58 + cg_61 + cg_63 + cg_64 + cg_65 + cg_70
   + cg_71 + cg_72 + cg_74 + cg_76 + cg_77 + cg_78 + cg_82 + cg_83 + cg_84
   + cg_85 + cg_88 + cg_89 + cg_93 + cg_95 + cg_100 + cg_104 + cg_109
   + cg_116 + cg_117 + cg_118 + cg_121 + cg_122 + cg_123 + cg_125 + cg_126
   + cg_129 + cg_134 + cg_135 + cg_144 + cg_146 + cg_150 + cg_151 + cg_152
   + cg_153 + cg_156 + cg_161 + cg_172 + cg_174 + cg_177 + cg_179 + cg_181
   + cg_190 + cg_194 + cg_210 + cg_217 + cg_222 = 1
 R10: y_10 + cg_1 + cg_2 + cg_3 + cg_5 + cg_6 + cg_9 + cg_10 + cg_11
   + cg_12 + cg_13 + cg_16 + cg_19 + cg_22 + cg_26 + cg_29 + cg_30 + cg_33
   + cg_36 + cg_37 + cg_38 + cg_41 + cg_45 + cg_48 + cg_50 + cg_51 + cg_52
   + cg_56 + cg_57 + cg_61 + cg_63 + cg_64 + cg_65 + cg_68 + cg_71 + cg_72
   + cg_73 + cg_74 + cg_75 + cg_76 + cg_77 + cg_78 + cg_82 + cg_85 + cg_88
   + cg_93 + cg_94 + cg_100 + cg_102 + cg_109 + cg_118 + cg_121 + cg_122
   + cg_126 + cg_129 + cg_134 + cg_142 + cg_144 + cg_146 + cg_147 + cg_150
   + cg_156 + cg_161 + cg_177 + cg_179 + cg_194 + cg_210 + cg_217 = 1
 R11: y_11 + cg_6 + cg_9 + cg_10 + cg_14 + cg_17 + cg_18 + cg_20 + cg_22
   + cg_24 + cg_26 + cg_29 + cg_34 + cg_35 + cg_36 + cg_37 + cg_40 + cg_42
   + cg_44 + cg_45 + cg_46 + cg_47 + cg_48 + cg_55 + cg_63 + cg_64 + cg_66
   + cg_69 + cg_70 + cg_75 + cg_80 + cg_81 + cg_83 + cg_86 + cg_87 + cg_88
   + cg_89 + cg_95 + cg_96 + cg_98 + cg_99 + cg_101 + cg_103 + cg_107
   + cg_110 + cg_111 + cg_113 + cg_115 + cg_119 + cg_125 + cg_127 + cg_128
   + cg_129 + cg_131 + cg_132 + cg_133 + cg_136 + cg_137 + cg_139 + cg_141
   + cg_142 + cg_143 + cg_144 + cg_145 + cg_157 + cg_162 + cg_163 + cg_164
   + cg_168 + cg_175 + cg_180 + cg_182 + cg_183 + cg_188 + cg_191 + cg_195
   + cg_206 + cg_208 + cg_219 = 1
 R12: y_12 + cg_1 + cg_2 + cg_3 + cg_4 + cg_5 + cg_6 + cg_7 + cg_8 + cg_9
   + cg_11 + cg_13 + cg_15 + cg_18 + cg_19 + cg_21 + cg_27 + cg_28 + cg_29
   + cg_44 + cg_47 + cg_51 + cg_53 + cg_57 + cg_59 + cg_61 + cg_63 + cg_65
   + cg_66 + cg_68 + cg_71 + cg_72 + cg_80 + cg_96 + cg_98 + cg_99 + cg_102
   + cg_103 + cg_105 + cg_107 + cg_110 + cg_112 + cg_115 + cg_121 + cg_128
   + cg_129 + cg_130 + cg_131 + cg_132 + cg_133 + cg_134 + cg_135 + cg_137
   + cg_139 + cg_141 + cg_143 + cg_145 + cg_151 + cg_152 + cg_155 + cg_157
   + cg_158 + cg_161 + cg_163 + cg_164 + cg_166 + cg_167 + cg_175 + cg_177
   + cg_178 + cg_182 + cg_183 + cg_187 + cg_192 + cg_193 + cg_194 + cg_198
   + cg_199 + cg_201 + cg_203 + cg_204 + cg_208 + cg_209 + cg_211 + cg_212
   + cg_213 + cg_214 + cg_216 + cg_218 + cg_219 + cg_220 + cg_221 + cg_222
   = 1
 R13: y_13 + cg_1 + cg_2 + cg_3 + cg_4 + cg_5 + cg_6 + cg_7 + cg_8 + cg_9
   + cg_10 + cg_17 + cg_18 + cg_20 + cg_24 + cg_29 + cg_36 + cg_40 + cg_43
   + cg_45 + cg_46 + cg_47 + cg_55 + cg_63 + cg_66 + cg_75 + cg_83 + cg_86
   + cg_87 + cg_88 + cg_95 + cg_96 + cg_98 + cg_103 + cg_105 + cg_107
   + cg_111 + cg_112 + cg_113 + cg_115 + cg_119 + cg_123 + cg_125 + cg_127
   + cg_128 + cg_129 + cg_131 + cg_132 + cg_133 + cg_136 + cg_137 + cg_141
   + cg_142 + cg_143 + cg_144 + cg_145 + cg_163 + cg_168 + cg_175 + cg_180
   + cg_182 + cg_183 + cg_188 + cg_189 + cg_191 + cg_195 + cg_206 + cg_208
   + cg_219 = 1
 R14: y_14 + cg_1 + cg_2 + cg_3 + cg_4 + cg_6 + cg_7 + cg_8 + cg_11 + cg_12
   + cg_16 + cg_17 + cg_18 + cg_19 + cg_25 + cg_32 + cg_35 + cg_40 + cg_43
   + cg_44 + cg_46 + cg_47 + cg_56 + cg_65 + cg_68 + cg_69 + cg_70 + cg_71
   + cg_72 + cg_74 + cg_76 + cg_80 + cg_81 + cg_83 + cg_86 + cg_87 + cg_89
   + cg_95 + cg_96 + cg_98 + cg_99 + cg_101 + cg_102 + cg_105 + cg_107
   + cg_110 + cg_111 + cg_112 + cg_113 + cg_115 + cg_119 + cg_121 + cg_123
   + cg_125 + cg_127 + cg_128 + cg_132 + cg_133 + cg_135 + cg_136 + cg_137
   + cg_141 + cg_143 + cg_145 + cg_152 + cg_157 + cg_161 + cg_162 + cg_164
   + cg_168 + cg_175 + cg_178 + cg_180 + cg_182 + cg_183 + cg_188 + cg_189
   + cg_191 + cg_195 + cg_199 + cg_206 + cg_208 + cg_209 + cg_213 + cg_214
   + cg_216 + cg_219 + cg_221 = 1
 R15: y_15 + cg_4 + cg_5 + cg_7 + cg_8 + cg_9 + cg_10 + cg_14 + cg_18
   + cg_20 + cg_22 + cg_25 + cg_26 + cg_35 + cg_40 + cg_43 + cg_45 + cg_46
   + cg_47 + cg_57 + cg_66 + cg_69 + cg_74 + cg_80 + cg_81 + cg_83 + cg_87
   + cg_89 + cg_95 + cg_99 + cg_101 + cg_102 + cg_103 + cg_105 + cg_107
   + cg_110 + cg_111 + cg_112 + cg_113 + cg_115 + cg_119 + cg_123 + cg_125
   + cg_127 + cg_128 + cg_129 + cg_131 + cg_132 + cg_133 + cg_136 + cg_139
   + cg_141 + cg_142 + cg_143 + cg_144 + cg_157 + cg_162 + cg_163 + cg_164
   + cg_168 + cg_175 + cg_180 + cg_182 + cg_183 + cg_188 + cg_189 + cg_191
   + cg_195 + cg_206 + cg_208 + cg_219 = 1
 R16: y_16 + cg_1 + cg_2 + cg_3 + cg_4 + cg_5 + cg_8 + cg_11 + cg_13
   + cg_15 + cg_17 + cg_20 + cg_27 + cg_29 + cg_37 + cg_44 + cg_47 + cg_48
   + cg_49 + cg_51 + cg_54 + cg_57 + cg_59 + cg_63 + cg_65 + cg_66 + cg_68
   + cg_71 + cg_72 + cg_81 + cg_96 + cg_98 + cg_102 + cg_103 + cg_105
   + cg_107 + cg_110 + cg_113 + cg_121 + cg_127 + cg_128 + cg_130 + cg_133
   + cg_134 + cg_135 + cg_137 + cg_139 + cg_141 + cg_143 + cg_145 + cg_152
   + cg_155 + cg_158 + cg_161 + cg_162 + cg_163 + cg_164 + cg_166 + cg_167
   + cg_175 + cg_177 + cg_178 + cg_180 + cg_182 + cg_183 + cg_184 + cg_186
   + cg_187 + cg_189 + cg_191 + cg_192 + cg_193 + cg_194 + cg_195 + cg_198
   + cg_199 + cg_201 + cg_203 + cg_204 + cg_206 + cg_208 + cg_209 + cg_211
   + cg_212 + cg_213 + cg_214 + cg_216 + cg_218 + cg_219 + cg_220 + cg_221
   + cg_222 = 1
 R17: y_17 + cg_1 + cg_2 + cg_3 + cg_4 + cg_6 + cg_8 + cg_11 + cg_13
   + cg_14 + cg_17 + cg_19 + cg_20 + cg_21 + cg_27 + cg_30 + cg_32 + cg_40
   + cg_48 + cg_49 + cg_51 + cg_59 + cg_61 + cg_63 + cg_65 + cg_66 + cg_68
   + cg_72 + cg_76 + cg_80 + cg_81 + cg_96 + cg_98 + cg_102 + cg_103
   + cg_105 + cg_107 + cg_110 + cg_111 + cg_115 + cg_119 + cg_121 + cg_127
   + cg_129 + cg_130 + cg_131 + cg_132 + cg_133 + cg_134 + cg_135 + cg_136
   + cg_137 + cg_139 + cg_141 + cg_143 + cg_145 + cg_151 + cg_152 + cg_154
   + cg_155 + cg_157 + cg_158 + cg_161 + cg_162 + cg_163 + cg_164 + cg_166
   + cg_167 + cg_168 + cg_175 + cg_177 + cg_178 + cg_180 + cg_182 + cg_183
   + cg_184 + cg_186 + cg_187 + cg_188 + cg_189 + cg_191 + cg_192 + cg_193
   + cg_194 + cg_195 + cg_198 + cg_199 + cg_201 + cg_203 + cg_204 + cg_206
   + cg_208 + cg_209 + cg_211 + cg_212 + cg_213 + cg_214 + cg_216 + cg_218
   + cg_219 + cg_220 + cg_221 + cg_222 = 1
 R18: y_18 + cg_1 + cg_2 + cg_3 + cg_6 + cg_11 + cg_12 + cg_13 + cg_14
   + cg_15 + cg_16 + cg_18 + cg_20 + cg_23 + cg_30 + cg_32 + cg_35 + cg_40
   + cg_44 + cg_47 + cg_49 + cg_51 + cg_57 + cg_61 + cg_63 + cg_65 + cg_66
   + cg_69 + cg_71 + cg_72 + cg_76 + cg_80 + cg_81 + cg_86 + cg_87 + cg_96
   + cg_98 + cg_102 + cg_103 + cg_105 + cg_107 + cg_110 + cg_111 + cg_112
   + cg_113 + cg_115 + cg_119 + cg_121 + cg_127 + cg_128 + cg_131 + cg_132
   + cg_134 + cg_135 + cg_136 + cg_137 + cg_139 + cg_141 + cg_143 + cg_145
   + cg_157 + cg_158 + cg_161 + cg_162 + cg_163 + cg_164 + cg_168 + cg_175
   + cg_178 + cg_182 + cg_183 + cg_184 + cg_188 + cg_189 + cg_191 + cg_192
   + cg_193 + cg_195 + cg_199 + cg_206 + cg_209 + cg_213 + cg_214 + cg_216
   + cg_219 + cg_221 = 1
 R19: y_19 + cg_1 + cg_2 + cg_5 + cg_7 + cg_8 + cg_9 + cg_10 + cg_11
   + cg_16 + cg_21 + cg_22 + cg_23 + cg_28 + cg_34 + cg_39 + cg_41 + cg_42
   + cg_43 + cg_45 + cg_46 + cg_47 + cg_48 + cg_49 + cg_50 + cg_54 + cg_68
   + cg_69 + cg_71 + cg_75 + cg_76 + cg_77 + cg_78 + cg_80 + cg_81 + cg_82
   + cg_85 + cg_86 + cg_90 + cg_91 + cg_96 + cg_97 + cg_106 + cg_108
   + cg_114 + cg_124 + cg_131 + cg_134 + cg_135 + cg_138 + cg_140 + cg_148
   + cg_160 + cg_184 + cg_185 + cg_202 + cg_205 + cg_215 = 1
 R20: y_20 + cg_15 + cg_16 + cg_19 + cg_20 + cg_21 + cg_23 + cg_24 + cg_27
   + cg_35 + cg_36 + cg_39 + cg_44 + cg_45 + cg_48 + cg_49 + cg_51 + cg_55
   + cg_56 + cg_57 + cg_59 + cg_61 + cg_62 + cg_63 + cg_64 + cg_65 + cg_67
   + cg_69 + cg_74 + cg_75 + cg_78 + cg_79 + cg_83 + cg_84 + cg_91 + cg_95
   + cg_97 + cg_108 + cg_109 + cg_111 + cg_114 + cg_120 + cg_127 + cg_128
   + cg_129 + cg_130 + cg_131 + cg_133 + cg_134 + cg_135 + cg_136 + cg_137
   + cg_138 + cg_139 + cg_140 + cg_142 + cg_146 + cg_147 + cg_148 + cg_149
   + cg_154 + cg_155 + cg_158 + cg_159 + cg_160 + cg_165 + cg_166 + cg_170
   + cg_171 + cg_172 + cg_173 + cg_174 + cg_176 + cg_177 + cg_178 + cg_181
   + cg_184 + cg_185 + cg_186 + cg_189 + cg_192 + cg_193 + cg_196 + cg_198
   + cg_199 + cg_201 + cg_202 + cg_203 + cg_204 + cg_205 + cg_209 + cg_211
   + cg_214 + cg_215 + cg_216 + cg_221 = 1
 R21: y_21 + cg_15 + cg_18 + cg_19 + cg_20 + cg_21 + cg_23 + cg_24 + cg_25
   + cg_28 + cg_33 + cg_34 + cg_36 + cg_37 + cg_38 + cg_39 + cg_41 + cg_43
   + cg_44 + cg_45 + cg_52 + cg_59 + cg_67 + cg_69 + cg_74 + cg_77 + cg_79
   + cg_80 + cg_81 + cg_84 + cg_86 + cg_88 + cg_91 + cg_92 + cg_95 + cg_97
   + cg_106 + cg_109 + cg_111 + cg_114 + cg_120 + cg_125 + cg_139 + cg_140
   + cg_142 + cg_146 + cg_147 + cg_148 + cg_149 + cg_154 + cg_155 + cg_158
   + cg_159 + cg_160 + cg_165 + cg_166 + cg_167 + cg_169 + cg_170 + cg_172
   + cg_173 + cg_174 + cg_176 + cg_177 + cg_178 + cg_181 + cg_184 + cg_185
   + cg_186 + cg_189 + cg_192 + cg_193 + cg_196 + cg_201 + cg_202 + cg_204
   + cg_205 + cg_211 + cg_214 + cg_221 = 1
 R22: y_22 + cg_3 + cg_6 + cg_9 + cg_10 + cg_11 + cg_14 + cg_15 + cg_16
   + cg_19 + cg_20 + cg_27 + cg_28 + cg_33 + cg_34 + cg_35 + cg_38 + cg_39
   + cg_43 + cg_47 + cg_48 + cg_55 + cg_60 + cg_61 + cg_63 + cg_64 + cg_65
   + cg_67 + cg_69 + cg_77 + cg_78 + cg_84 + cg_88 + cg_89 + cg_90 + cg_93
   + cg_97 + cg_107 + cg_125 + cg_149 + cg_154 + cg_155 + cg_158 + cg_159
   + cg_160 + cg_186 + cg_193 + cg_196 + cg_198 + cg_203 + cg_209 + cg_213
   + cg_215 + cg_216 = 1
 R23: y_23 + cg_5 + cg_7 + cg_8 + cg_9 + cg_17 + cg_18 + cg_19 + cg_22
   + cg_23 + cg_27 + cg_30 + cg_32 + cg_33 + cg_34 + cg_37 + cg_38 + cg_39
   + cg_41 + cg_45 + cg_46 + cg_53 + cg_54 + cg_56 + cg_57 + cg_58 + cg_60
   + cg_63 + cg_68 + cg_69 + cg_72 + cg_82 + cg_86 + cg_90 + cg_91 + cg_97
   + cg_101 + cg_102 + cg_106 + cg_119 + cg_120 + cg_124 + cg_131 + cg_134
   + cg_135 + cg_138 + cg_140 + cg_142 + cg_143 + cg_149 + cg_160 + cg_170
   + cg_176 + cg_184 + cg_185 + cg_202 + cg_205 + cg_206 + cg_215 = 1
 R24: y_24 + cg_23 + cg_26 + cg_28 + cg_30 + cg_31 + cg_33 + cg_34 + cg_36
   + cg_37 + cg_38 + cg_39 + cg_41 + cg_48 + cg_50 + cg_53 + cg_54 + cg_55
   + cg_56 + cg_58 + cg_67 + cg_75 + cg_76 + cg_77 + cg_79 + cg_82 + cg_85
   + cg_86 + cg_90 + cg_97 + cg_101 + cg_106 + cg_108 + cg_114 + cg_119
   + cg_120 + cg_124 + cg_130 + cg_138 + cg_140 + cg_142 + cg_148 + cg_154
   + cg_159 + cg_160 + cg_166 + cg_170 + cg_176 + cg_202 + cg_205 = 1
 R25: y_25 + cg_3 + cg_6 + cg_9 + cg_10 + cg_11 + cg_14 + cg_15 + cg_16
   + cg_18 + cg_21 + cg_23 + cg_25 + cg_27 + cg_30 + cg_31 + cg_34 + cg_36
   + cg_37 + cg_39 + cg_42 + cg_45 + cg_47 + cg_51 + cg_52 + cg_62 + cg_74
   + cg_77 + cg_79 + cg_80 + cg_81 + cg_83 + cg_84 + cg_90 + cg_92 + cg_93
   + cg_95 + cg_97 + cg_104 + cg_106 + cg_108 + cg_111 + cg_114 + cg_120
   + cg_124 + cg_125 + cg_131 + cg_138 + cg_139 + cg_142 + cg_146 + cg_147
   + cg_148 + cg_149 + cg_154 + cg_155 + cg_158 + cg_159 + cg_160 + cg_165
   + cg_166 + cg_169 + cg_170 + cg_171 + cg_174 + cg_176 + cg_177 + cg_178
   + cg_181 + cg_184 + cg_185 + cg_186 + cg_189 + cg_192 + cg_193 + cg_196
   + cg_198 + cg_199 + cg_201 + cg_203 + cg_204 + cg_205 + cg_209 + cg_213
   + cg_215 + cg_216 = 1
 R26: y_26 + cg_5 + cg_7 + cg_9 + cg_12 + cg_13 + cg_14 + cg_17 + cg_22
   + cg_23 + cg_25 + cg_26 + cg_27 + cg_28 + cg_31 + cg_41 + cg_42 + cg_43
   + cg_45 + cg_46 + cg_48 + cg_49 + cg_50 + cg_53 + cg_54 + cg_55 + cg_56
   + cg_58 + cg_59 + cg_60 + cg_62 + cg_67 + cg_69 + cg_73 + cg_75 + cg_77
   + cg_79 + cg_82 + cg_86 + cg_90 + cg_91 + cg_92 + cg_97 + cg_101
   + cg_106 + cg_108 + cg_114 + cg_120 + cg_124 + cg_138 + cg_148 + cg_149
   + cg_154 + cg_155 + cg_158 + cg_159 + cg_160 + cg_165 + cg_166 + cg_167
   + cg_169 + cg_170 + cg_171 + cg_173 + cg_176 + cg_184 + cg_185 + cg_186
   + cg_192 + cg_193 + cg_196 + cg_198 + cg_201 + cg_202 + cg_203 + cg_204
   + cg_205 + cg_211 + cg_215 = 1
 R27: y_27 + cg_12 + cg_15 + cg_16 + cg_21 + cg_23 + cg_25 + cg_27 + cg_28
   + cg_30 + cg_31 + cg_32 + cg_33 + cg_39 + cg_41 + cg_42 + cg_51 + cg_52
   + cg_54 + cg_55 + cg_57 + cg_60 + cg_61 + cg_62 + cg_65 + cg_67 + cg_91
   + cg_92 + cg_93 + cg_97 + cg_104 + cg_106 + cg_108 + cg_120 + cg_124
   + cg_130 + cg_138 + cg_140 + cg_146 + cg_147 + cg_148 + cg_154 + cg_155
   + cg_158 + cg_159 + cg_160 + cg_165 + cg_167 + cg_169 + cg_170 + cg_171
   + cg_174 + cg_176 + cg_181 + cg_186 + cg_193 + cg_198 + cg_199 + cg_201
   + cg_203 + cg_204 + cg_205 + cg_209 + cg_213 + cg_215 = 1
 R28: y_28 + cg_5 + cg_7 + cg_9 + cg_10 + cg_13 + cg_14 + cg_15 + cg_17
   + cg_23 + cg_25 + cg_26 + cg_28 + cg_36 + cg_37 + cg_39 + cg_42 + cg_46
   + cg_54 + cg_55 + cg_56 + cg_59 + cg_60 + cg_62 + cg_67 + cg_73 + cg_90
   + cg_91 + cg_92 + cg_101 + cg_106 + cg_114 + cg_124 + cg_130 + cg_138
   + cg_140 + cg_142 + cg_148 + cg_149 + cg_154 + cg_155 + cg_158 + cg_159
   + cg_160 + cg_165 + cg_166 + cg_167 + cg_169 + cg_170 + cg_171 + cg_173
   + cg_174 + cg_176 + cg_184 + cg_185 + cg_193 + cg_203 + cg_204 + cg_205
   + cg_211 + cg_215 = 1
 R29: y_29 + cg_10 + cg_11 + cg_12 + cg_13 + cg_15 + cg_22 + cg_23 + cg_27
   + cg_28 + cg_31 + cg_32 + cg_33 + cg_36 + cg_39 + cg_52 + cg_54 + cg_67
   + cg_73 + cg_75 + cg_79 + cg_90 + cg_91 + cg_108 + cg_114 + cg_120
   + cg_124 + cg_140 + cg_142 + cg_148 + cg_149 + cg_154 + cg_155 + cg_158
   + cg_159 + cg_160 + cg_166 + cg_167 + cg_169 + cg_171 + cg_173 + cg_174
   + cg_176 + cg_177 + cg_178 + cg_181 + cg_184 + cg_185 + cg_186 + cg_193
   + cg_196 + cg_198 + cg_199 + cg_201 + cg_202 + cg_203 + cg_204 + cg_205
   + cg_209 + cg_211 + cg_213 + cg_214 + cg_215 + cg_216 + cg_221 = 1
Bounds
 y_0 <= 1
 y_1 <= 1
 y_2 <= 1
 y_3 <= 1
 y_4 <= 1
 y_5 <= 1
 y_6 <= 1
 y_7 <= 1
 y_8 <= 1
 y_9 <= 1
 y_10 <= 1
 y_11 <= 1
 y_12 <= 1
 y_13 <= 1
 y_14 <= 1
 y_15 <= 1
 y_16 <= 1
 y_17 <= 1
 y_18 <= 1
 y_19 <= 1
 y_20 <= 1
 y_21 <= 1
 y_22 <= 1
 y_23 <= 1
 y_24 <= 1
 y_25 <= 1
 y_26 <= 1
 y_27 <= 1
 y_28 <= 1
 y_29 <= 1
 cg_1 <= 1
 cg_2 <= 1
 cg_3 <= 1
 cg_4 <= 1
 cg_5 <= 1
 cg_6 <= 1
 cg_7 <= 1
 cg_8 <= 1
 cg_9 <= 1
 cg_10 <= 1
 cg_11 <= 1
 cg_12 <= 1
 cg_13 <= 1
 cg_14 <= 1
 cg_15 <= 1
 cg_16 <= 1
 cg_17 <= 1
 cg_18 <= 1
 cg_19 <= 1
 cg_20 <= 1
 cg_21 <= 1
 cg_22 <= 1
 cg_23 <= 1
 cg_24 <= 1
 cg_25 <= 1
 cg_26 <= 1
 cg_27 <= 1
 cg_28 <= 1
 cg_29 <= 1
 cg_30 <= 1
 cg_31 <= 1
 cg_32 <= 1
 cg_33 <= 1
 cg_34 <= 1
 cg_35 <= 1
 cg_36 <= 1
 cg_37 <= 1
 cg_38 <= 1
 cg_39 <= 1
 cg_40 <= 1
 cg_41 <= 1
 cg_42 <= 1
 cg_43 <= 1
 cg_44 <= 1
 cg_45 <= 1
 cg_46 <= 1
 cg_47 <= 1
 cg_48 <= 1
 cg_49 <= 1
 cg_50 <= 1
 cg_51 <= 1
 cg_52 <= 1
 cg_53 <= 1
 cg_54 <= 1
 cg_55 <= 1
 cg_56 <= 1
 cg_57 <= 1
 cg_58 <= 1
 cg_59 <= 1
 cg_60 <= 1
 cg_61 <= 1
 cg_62 <= 1
 cg_63 <= 1
 cg_64 <= 1
 cg_65 <= 1
 cg_66 <= 1
 cg_67 <= 1
 cg_68 <= 1
 cg_69 <= 1
 cg_70 <= 1
 cg_71 <= 1
 cg_72 <= 1
 cg_73 <= 1
 cg_74 <= 1
 cg_75 <= 1
 cg_76 <= 1
 cg_77 <= 1
 cg_78 <= 1
 cg_79 <= 1
 cg_80 <= 1
 cg_81 <= 1
 cg_82 <= 1
 cg_83 <= 1
 cg_84 <= 1
 cg_85 <= 1
 cg_86 <= 1
 cg_87 <= 1
 cg_88 <= 1
 cg_89 <= 1
 cg_90 <= 1
 cg_91 <= 1
 cg_92 <= 1
 cg_93 <= 1
 cg_94 <= 1
 cg_95 <= 1
 cg_96 <= 1
 cg_97 <= 1
 cg_98 <= 1
 cg_99 <= 1
 cg_100 <= 1
 cg_101 <= 1
 cg_102 <= 1
 cg_103 <= 1
 cg_104 <= 1
 cg_105 <= 1
 cg_106 <= 1
 cg_107 <= 1
 cg_108 <= 1
 cg_109 <= 1
 cg_110 <= 1
 cg_111 <= 1
 cg_112 <= 1
 cg_113 <= 1
 cg_114 <= 1
 cg_115 <= 1
 cg_116 <= 1
 cg_117 <= 1
 cg_118 <= 1
 cg_119 <= 1
 cg_120 <= 1
 cg_121 <= 1
 cg_122 <= 1
 cg_123 <= 1
 cg_124 <= 1
 cg_125 <= 1
 cg_126 <= 1
 cg_127 <= 1
 cg_128 <= 1
 cg_129 <= 1
 cg_130 <= 1
 cg_131 <= 1
 cg_132 <= 1
 cg_133 <= 1
 cg_134 <= 1
 cg_135 <= 1
 cg_136 <= 1
 cg_137 <= 1
 cg_138 <= 1
 cg_139 <= 1
 cg_140 <= 1
 cg_141 <= 1
 cg_142 <= 1
 cg_143 <= 1
 cg_144 <= 1
 cg_145 <= 1
 cg_146 <= 1
 cg_147 <= 1
 cg_148 <= 1
 cg_149 <= 1
 cg_150 <= 1
 cg_151 <= 1
 cg_152 <= 1
 cg_153 <= 1
 cg_154 <= 1
 cg_155 <= 1
 cg_156 <= 1
 cg_157 <= 1
 cg_158 <= 1
 cg_159 <= 1
 cg_160 <= 1
 cg_161 <= 1
 cg_162 <= 1
 cg_163 <= 1
 cg_164 <= 1
 cg_165 <= 1
 cg_166 <= 1
 cg_167 <= 1
 cg_168 <= 1
 cg_169 <= 1
 cg_170 <= 1
 cg_171 <= 1
 cg_172 <= 1
 cg_173 <= 1
 cg_174 <= 1
 cg_175 <= 1
 cg_176 <= 1
 cg_177 <= 1
 cg_178 <= 1
 cg_179 <= 1
 cg_180 <= 1
 cg_181 <= 1
 cg_182 <= 1
 cg_183 <= 1
 cg_184 <= 1
 cg_185 <= 1
 cg_186 <= 1
 cg_187 <= 1
 cg_188 <= 1
 cg_189 <= 1
 cg_190 <= 1
 cg_191 <= 1
 cg_192 <= 1
 cg_193 <= 1
 cg_194 <= 1
 cg_195 <= 1
 cg_196 <= 1
 cg_197 <= 1
 cg_198 <= 1
 cg_199 <= 1
 cg_200 <= 1
 cg_201 <= 1
 cg_202 <= 1
 cg_203 <= 1
 cg_204 <= 1
 cg_205 <= 1
 cg_206 <= 1
 cg_207 <= 1
 cg_208 <= 1
 cg_209 <= 1
 cg_210 <= 1
 cg_211 <= 1
 cg_212 <= 1
 cg_213 <= 1
 cg_214 <= 1
 cg_215 <= 1
 cg_216 <= 1
 cg_217 <= 1
 cg_218 <= 1
 cg_219 <= 1
 cg_220 <= 1
 cg_221 <= 1
 cg_222 <= 1
End
